WARNING: for repeatability, setting FPU to use double precision
============================[ Problem Statistics ]=============================
|                                                                             |
|  Number of variables:        754446                                         |
|  Number of clauses:         2205450                                         |
|  Parse time:                   0.52 s                                       |
|                                                                             |
c ============================[ Search Statistics ]==============================
c | Conflicts |          ORIGINAL         |          LEARNT          | Progress |
c |           |    Vars  Clauses Literals |    Limit  Clauses Lit/Cl |          |
c ===============================================================================
c Switched to VSIDS.
c Switched to LRB.
c Switched to VSIDS.
c Switched to LRB.
c Switched to VSIDS.
c Switched to LRB.
c Switched to VSIDS.
c Switched to LRB.
c Switched to VSIDS.
c Switched to LRB.
c Switched to VSIDS.
c Switched to LRB.
c Switched to VSIDS.
c Switched to LRB.
c Switched to VSIDS.
c Switched to LRB.
c Switched to VSIDS.
c Switched to LRB.
c Switched to VSIDS.
c Switched to LRB.
c Switched to VSIDS.
c Switched to LRB.
c Switched to VSIDS.
c Switched to LRB.
c Switched to VSIDS.
c Switched to LRB.
c Switched to VSIDS.
c Switched to LRB.
c Switched to VSIDS.
c Switched to LRB.
c Switched to VSIDS.
c Switched to LRB.
c Switched to VSIDS.
c Switched to LRB.
c Switched to VSIDS.
c ===============================================================================
restarts                  : 1914
conflicts                 : 542906         (151 /sec)
decisions                 : 11226547       (0.00 % random) (3131 /sec)
propagations              : 9456337464     (2637380 /sec)
conflict literals         : 318486413      (43.07 % deleted)

conflicts w/ DIP found    : 478700         (88.17 % of conflicts)
conflicts w/ dangerous DIP: 0              (0.00 % of conflicts)
conflicts w/ DIP-learning : 734            (0.14 % of conflicts)
decisions on ext vars     : 3040           (0.03 % of decisions)
total ext vars            : 287         
tried delete ext vars     : 6           
deleted ext vars          : 6           
max ext vars              : 281         

Memory used               : 890.00 MB
CPU time                  : 3585.5 s
DIP computation time      : 15.7304 s (0.44 % of total time)
ER_sel time               : 1.24945 s
ER_add time               : 0.004499 s
ER_delC time              : 0 s
ER_delV time              : 0.002153 s
ER_sub time               : 2.70731 s
ER_stat time              : 0 s

INDETERMINATE
